Solver command line: ['/home/ffm2000/opt/cplex/cplex/bin/x86-64_linux/cplex']


Welcome to IBM(R) ILOG(R) CPLEX(R) Interactive Optimizer 22.1.1.0
  with Simplex, Mixed Integer & Barrier Optimizers
5725-A06 5725-A29 5724-Y48 5724-Y49 5724-Y54 5724-Y55 5655-Y21
Copyright IBM Corp. 1988, 2022.  All Rights Reserved.

Type 'help' for a list of available commands.
Type 'help' followed by a command name for more
information on commands.

CPLEX> Logfile 'cplex.log' closed.
Logfile 'solver_log_SP_PT_Technology81.log' open.
CPLEX> New value for mixed integer optimality gap tolerance: 0.0002
CPLEX> New value for time limit in seconds: 28000
CPLEX> New value for integrality tolerance: 0
CPLEX> New value for feasibility tolerance: 1e-08
CPLEX> Problem '/tmp/221798.1.RCCS/tmpt99alt0s.pyomo.lp' read.
Read time = 0.27 sec. (20.83 ticks)
CPLEX> Problem name         : /tmp/221798.1.RCCS/tmpt99alt0s.pyomo.lp
Objective sense      : Minimize
Variables            :  116435  [Nneg: 1,  Box: 116166,  Binary: 180,
                                 General Integer: 88]
Objective nonzeros   :       2
Linear constraints   :  261004  [Less: 128953,  Greater: 12240,  Equal: 119811]
  Nonzeros           :  429533
  RHS nonzeros       :   12270

Variables            : Min LB: 0.000000         Max UB: 1.000000e+10   
Objective nonzeros   : Min   : 0.1187400        Max   : 1.000000       
Linear constraints   :
  Nonzeros           : Min   : 0.02000000       Max   : 505146.4       
  RHS nonzeros       : Min   : 1.000000         Max   : 3.413333e+07   
CPLEX> Version identifier: 22.1.1.0 | 2022-11-28 | 9160aff4d
CPXPARAM_Simplex_Tolerances_Feasibility          1e-08
CPXPARAM_TimeLimit                               28000
CPXPARAM_MIP_Tolerances_MIPGap                   0.00020000000000000001
CPXPARAM_MIP_Tolerances_Integrality              0
Tried aggregator 4 times.
MIP Presolve eliminated 260608 rows and 116002 columns.
MIP Presolve modified 237 coefficients.
Aggregator did 334 substitutions.
Reduced MIP has 62 rows, 99 columns, and 376 nonzeros.
Reduced MIP has 78 binaries, 5 generals, 0 SOSs, and 0 indicators.
Presolve time = 0.17 sec. (232.93 ticks)
Found incumbent of value 3451019.147773 after 0.19 sec. (247.95 ticks)
Probing fixed 0 vars, tightened 5 bounds.
Probing time = 0.00 sec. (0.22 ticks)
Tried aggregator 1 time.
Detecting symmetries...
Reduced MIP has 62 rows, 99 columns, and 376 nonzeros.
Reduced MIP has 78 binaries, 5 generals, 0 SOSs, and 0 indicators.
Presolve time = 0.00 sec. (0.32 ticks)
Probing time = 0.00 sec. (0.16 ticks)
Clique table members: 196.
MIP emphasis: balance optimality and feasibility.
MIP search method: dynamic search.
Parallel mode: deterministic, using up to 32 threads.
Root relaxation solution time = 0.00 sec. (1.02 ticks)

        Nodes                                         Cuts/
   Node  Left     Objective  IInf  Best Integer    Best Bound    ItCnt     Gap

*     0+    0                      3451019.1478    17479.8658            99.49%
*     0+    0                      2954256.9740    17479.8658            99.41%
      0     0  1178890.7110    27  2954256.9740  1178890.7110       59   60.10%
      0     0  1233978.3742    16  2954256.9740     Cuts: 115       98   58.23%
*     0+    0                      1278654.7920  1233978.3742             3.49%
      0     0  1241717.0126    23  1278654.7920      Cuts: 21      112    2.89%
      0     0  1242683.2852    27  1278654.7920      Cuts: 13      121    2.81%
      0     0  1242960.7702    24  1278654.7920      Cuts: 11      133    2.79%
      0     0  1244256.4918    27  1278654.7920      Cuts: 14      140    2.69%
Detecting symmetries...
      0     0  1244522.1728    31  1278654.7920      Cuts: 10      147    2.67%
      0     0  1245226.9762    31  1278654.7920       Cuts: 7      158    2.61%
      0     0  1246597.5966    31  1278654.7920       Cuts: 5      160    2.51%
      0     0  1246684.0445    31  1278654.7920    MIRcuts: 1      161    2.50%
*     0+    0                      1265455.8436  1246684.0445             1.48%
*     0+    0                      1262180.7074  1246684.0445             1.23%
Detecting symmetries...
      0     2  1246684.0445    31  1262180.7074  1246684.0445      161    1.23%
Elapsed time = 0.76 sec. (282.42 ticks, tree = 0.02 MB, solutions = 5)

Clique cuts applied:  71
Cover cuts applied:  29
Implied bound cuts applied:  2
Mixed integer rounding cuts applied:  12
Zero-half cuts applied:  2
Gomory fractional cuts applied:  7

Root node processing (before b&c):
  Real time             =    0.54 sec. (286.96 ticks)
Parallel b&c, 32 threads:
  Real time             =    0.33 sec. (6.25 ticks)
  Sync time (average)   =    0.10 sec.
  Wait time (average)   =    0.00 sec.
                          ------------
Total (root+branch&cut) =    0.88 sec. (293.21 ticks)

Solution pool: 5 solutions saved.

MIP - Integer optimal, tolerance (0.0002/1e-06):  Objective =  1.2621807074e+06
Current MIP best bound =  1.2619481524e+06 (gap = 232.555, 0.02%)
Solution time =    0.89 sec.  Iterations = 1270  Nodes = 319 (15)
Deterministic time = 293.54 ticks  (329.26 ticks/sec)

CPLEX> Incumbent solution written to file '/tmp/221798.1.RCCS/tmpfdvw0c4q.cplex.sol'.
CPLEX> 
